NAME : berlin52.tsp
COMMENT : Optimal tour for berlin52.tsp
TYPE : TOUR
DIMENSION : 52
Total Length: 8224.845549186843
TOUR_SECTION
1
22
18
31
23
20
50
44
37
48
24
6
4
15
5
38
40
39
34
35
36
49
32
45
19
41
8
9
10
43
33
51
12
11
52
14
13
47
26
27
28
25
46
16
29
30
2
7
42
21
17
3
-1
EOF
